5
989 661 412  513
745 866 594  723
563 714 915  564
645 477 991  224
938 534 899  393
10
541 151 759  97 202
171 758 698  59 102
692 279 702  151 90
356 710 770  173 19
563 351 632  88 179
523 304 772  98 103
127 738 138  111 40
368 48 1  228 57
56 162 638  182 52
370 648 113  148 165
